# SCIP version 3.0.2.1

detection/emphfast/enabled = TRUE
detection/smartscore/enabled = FALSE
detection/detectors/hcgpartition/overruleemphasis = TRUE
detection/detectors/hcgpartition/maxnblockcandidates = 1